# Problem from the book:
# Gyora Bededek: "Hidato: 2000 Pure Logic Puzzles"

# Problem 15 (Intermediate)
param n := 8;
param puzzle: 1 2 3 4 5 6 7 8 := 
  1  64  .  .  .  .  .  .  . 
  2   1 63  . 59 15 57 53  . 
  3   .  4  . 14  .  .  .  . 
  4   3  . 11  . 20 19  . 50 
  5   .  .  .  . 22  . 48 40 
  6   9  .  . 32 23  .  . 41 
  7  27  .  .  . 36  . 46  . 
  8  28 30  . 35  .  .  .  . 
;
